80 80
91 76 1
98 64 1
54 59 1
56 80 1
71 70 1
93 99 1
91 59 1
57 70 1
14 26 1
50 95 1
39 80 1
22 22 1
67 93 1
69 52 1
98 94 1
96 85 1
82 72 1
1 22 1
69 78 1
83 60 1
59 62 1
93 52 1
3 25 1
81 97 1
48 15 1
47 45 1
97 82 1
91 96 1
99 78 1
62 99 1
67 2 1
74 6 1
60 53 1
40 15 1
21 89 1
96 77 1
84 91 1
79 93 1
100 27 1
91 60 1
69 90 1
80 82 1
91 81 1
48 69 1
77 50 1
93 83 1
96 48 1
65 62 1
75 72 1
66 95 1
9 83 1
97 31 1
96 56 1
52 69 1
90 15 1
37 73 1
28 66 1
100 55 1
72 66 1
94 3 1
71 58 1
58 52 1
22 86 1
55 56 1
84 28 1
79 62 1
83 53 1
32 80 1
44 71 1
12 33 1
56 90 1
20 48 1
81 50 1
6 16 1
41 92 1
20 37 1
62 53 1
74 10 1
87 98 1
81 86 1
100 100 
100 100 
100 100 
100 100 
100 100 
100 100 
100 100 
100 100 
100 100 
100 100 
100 100 
100 100 
100 100 
100 100 
100 100 
100 100 
100 100 
100 100 
100 100 
100 100 
100 100 
100 100 
100 100 
100 100 
100 100 
100 100 
100 100 
100 100 
100 100 
100 100 
100 100 
100 100 
100 100 
100 100 
100 100 
100 100 
100 100 
100 100 
100 100 
100 100 
100 100 
100 100 
100 100 
100 100 
100 100 
100 100 
100 100 
100 100 
100 100 
100 100 
100 100 
100 100 
100 100 
100 100 
100 100 
100 100 
100 100 
100 100 
100 100 
100 100 
100 100 
100 100 
100 100 
100 100 
100 100 
100 100 
100 100 
100 100 
100 100 
100 100 
100 100 
100 100 
100 100 
100 100 
100 100 
100 100 
100 100 
100 100 
100 100 
100 100 
